c nvars nclauses
p cnf 116 324
c Implemenation
1 2 -4 0 
1 -2 4 0 
-1 2 4 0 
-1 -2 -4 0 
1 -6 0 
2 -6 0 
-1 -2 6 0 
4 -5 0 
3 -5 0 
-4 -3 5 0 
-6 7 0 
-5 7 0 
6 5 -7 0 
4 3 -8 0 
4 -3 8 0 
-4 3 8 0 
-4 -3 -8 0 
9 10 -12 0 
9 -10 12 0 
-9 10 12 0 
-9 -10 -12 0 
9 -14 0 
10 -14 0 
-9 -10 14 0 
12 -13 0 
11 -13 0 
-12 -11 13 0 
-14 15 0 
-13 15 0 
14 13 -15 0 
12 11 -16 0 
12 -11 16 0 
-12 11 16 0 
-12 -11 -16 0 
17 18 -20 0 
17 -18 20 0 
-17 18 20 0 
-17 -18 -20 0 
17 -22 0 
18 -22 0 
-17 -18 22 0 
20 -21 0 
7 -21 0 
-20 -7 21 0 
-22 11 0 
-21 11 0 
22 21 -11 0 
20 7 -24 0 
20 -7 24 0 
-20 7 24 0 
-20 -7 -24 0 
25 26 -27 0 
25 -26 27 0 
-25 26 27 0 
-25 -26 -27 0 
25 -29 0 
26 -29 0 
-25 -26 29 0 
27 -28 0 
15 -28 0 
-27 -15 28 0 
-28 31 0 
-29 31 0 
28 29 -31 0 
27 15 -30 0 
27 -15 30 0 
-27 15 30 0 
-27 -15 -30 0 
-16 23 0 
-24 23 0 
16 24 -23 0 
23 -32 0 
30 -32 0 
-23 -30 32 0 
-31 33 0 
-32 33 0 
31 32 -33 0 
24 34 0 
-24 -34 0 
16 35 0 
-16 -35 0 
24 -36 0 
35 -36 0 
-24 -35 36 0 
-16 37 0 
-36 37 0 
16 36 -37 0 
24 35 -38 0 
24 -35 38 0 
-24 35 38 0 
-24 -35 -38 0 
30 -38 0 
37 -38 0 
-30 -37 38 0 
30 37 -39 0 
30 -37 39 0 
-30 37 39 0 
-30 -37 -39 0 
33 40 0 
-33 -40 0 
8 -41 0 
40 -41 0 
-8 -40 41 0 
8 -43 0 
33 -43 0 
-8 -33 43 0 
-41 42 0 
-43 42 0 
41 43 -42 0 
33 44 0 
-33 -44 0 
24 -45 0 
44 -45 0 
-24 -44 45 0 
34 -46 0 
33 -46 0 
-34 -33 46 0 
-45 47 0 
-46 47 0 
45 46 -47 0 
33 48 0 
-33 -48 0 
30 -49 0 
48 -49 0 
-30 -48 49 0 
39 -50 0 
33 -50 0 
-39 -33 50 0 
-50 51 0 
-49 51 0 
50 49 -51 0 
33 52 0 
-33 -52 0 
16 -53 0 
52 -53 0 
-16 -52 53 0 
38 -54 0 
33 -54 0 
-38 -33 54 0 
-53 55 0 
-54 55 0 
53 54 -55 0 

c Specification
1 2 -58 0 
1 -2 58 0 
-1 2 58 0 
-1 -2 -58 0 
58 -111 0 
3 -111 0 
-58 -3 111 0 
1 -112 0 
2 -112 0 
-1 -2 112 0 
-112 61 0 
-111 61 0 
112 111 -61 0 
17 18 -64 0 
17 -18 64 0 
-17 18 64 0 
-17 -18 -64 0 
64 -65 0 
61 -65 0 
-64 -61 65 0 
17 -68 0 
18 -68 0 
-17 -18 68 0 
-68 69 0 
-65 69 0 
68 65 -69 0 
70 71 -72 0 
70 -71 72 0 
-70 71 72 0 
-70 -71 -72 0 
72 -73 0 
69 -73 0 
-72 -69 73 0 
9 -76 0 
10 -76 0 
-9 -10 76 0 
-76 79 0 
-73 79 0 
76 73 -79 0 
25 26 -80 0 
25 -26 80 0 
-25 26 80 0 
-25 -26 -80 0 
80 -82 0 
79 -82 0 
-80 -79 82 0 
25 -85 0 
26 -85 0 
-25 -26 85 0 
80 79 -81 0 
80 -79 81 0 
-80 79 81 0 
-80 -79 -81 0 
-85 86 0 
-82 86 0 
85 82 -86 0 
72 69 -91 0 
72 -69 91 0 
-72 69 91 0 
-72 -69 -91 0 
64 61 -90 0 
64 -61 90 0 
-64 61 90 0 
-64 -61 -90 0 
81 88 0 
-81 -88 0 
86 87 0 
-86 -87 0 
81 -92 0 
91 -92 0 
-81 -91 92 0 
90 93 0 
-90 -93 0 
88 -89 0 
87 -89 0 
-88 -87 89 0 
91 94 0 
-91 -94 0 
81 -95 0 
94 -95 0 
-81 -94 95 0 
90 -96 0 
91 -96 0 
-90 -91 96 0 
-90 97 0 
-91 97 0 
90 91 -97 0 
92 -98 0 
93 -98 0 
-92 -93 98 0 
88 -99 0 
91 -99 0 
-88 -91 99 0 
89 -100 0 
90 -100 0 
-89 -90 100 0 
95 -101 0 
93 -101 0 
-95 -93 101 0 
86 -102 0 
90 -102 0 
-86 -90 102 0 
-99 103 0 
-96 103 0 
99 96 -103 0 
93 -104 0 
86 -104 0 
-93 -86 104 0 
81 -105 0 
97 -105 0 
-81 -97 105 0 
-100 106 0 
-98 106 0 
100 98 -106 0 
-101 109 0 
-102 109 0 
101 102 -109 0 
-103 108 0 
-104 108 0 
103 104 -108 0 
-104 107 0 
-106 107 0 
104 106 -107 0 
58 3 -56 0 
58 -3 56 0 
-58 3 56 0 
-58 -3 -56 0 
-105 19 0 
-86 19 0 
105 86 -19 0 

c Don't care
-17 57 0 
-9 57 0 
17 9 -57 0 
25 -59 0 
57 -59 0 
-25 -57 59 0 
-10 60 0 
-18 60 0 
10 18 -60 0 
26 -62 0 
60 -62 0 
-26 -60 62 0 
59 -63 0 
62 -63 0 
-59 -62 63 0 

c Final
56 42 -66 0 
56 -42 66 0 
-56 42 66 0 
-56 -42 -66 0 
63 67 0 
-63 -67 0 
66 -110 0 
67 -110 0 
-66 -67 110 0 
107 47 -83 0 
107 -47 83 0 
-107 47 83 0 
-107 -47 -83 0 
83 -113 0 
67 -113 0 
-83 -67 113 0 
108 55 -84 0 
108 -55 84 0 
-108 55 84 0 
-108 -55 -84 0 
84 -114 0 
67 -114 0 
-84 -67 114 0 
109 51 -70 0 
109 -51 70 0 
-109 51 70 0 
-109 -51 -70 0 
70 -115 0 
67 -115 0 
-70 -67 115 0 
19 33 -71 0 
19 -33 71 0 
-19 33 71 0 
-19 -33 -71 0 
71 -116 0 
67 -116 0 
-71 -67 116 0 
110 0
113 0
114 0
115 0
116 0

